benchmarks_vrp/CMT2/no_cluster/CMT2_8.vrp
NAME: CMT2_8
TYPE: CVRP
COMMENT: 835.26 - Cluster Nr.8
DIMENSION: 7
CAPACITY: 140
EDGE_WEIGHT_TYPE: EUC_2D
NODE_COORD_TYPE: TWOD_COORDS
NODE_COORD_SECTION: 
4 50 50
2 55 50
5 62 48
7 62 57
3 40 40
6 55 65
1 55 57
DEPOT_SECTION: 
3
-1
DEMAND_SECTION: 
7 31
3 0
6 37
1 22
5 15
4 15
2 10
EOF
