benchmarks_vrp/CMT2/no_cluster/CMT2_8.tour
NAME: CMT2_8 solution
TYPE: TOUR
TOUR_SECTION:
3 2 5 7 6 1 4 -1
-1
EOF